param n := 3;
set S[1] := 1 2 3 4 5 6 7 8 9 10;
set S[2] := 1 2 3 4 5 6 7 8 9 10;
set S[3] := 1 2 3 4 5 6 7 8 9 10;

param A :=
[*,1,1,1]  1 468 2 432 3 569
[*,2,1,1]  1 460 2 359 3 924
[*,3,1,1]  1 552 2 452 3 342
[*,4,1,1]  1 422 2 423 3 523
[*,5,1,1]  1 500 2 350 3 683
[*,6,1,1]  1 640 2 406 3 469
[*,7,1,1]  1 890 2 500 3 681
[*,8,1,1]  1 398 2 300 3 486
[*,9,1,1]  1 480 2 531 3 542
[*,10,1,1]  1 749 2 548 3 377
[*,1,2,1]  1 377 2 339 3 346
[*,2,2,1]  1 547 2 503 3 490
[*,3,2,1]  1 617 2 819 3 500
[*,4,2,1]  1 341 2 844 3 417
[*,5,2,1]  1 49 2 423 3 401
[*,6,2,1]  1 719 2 527 3 233
[*,7,2,1]  1 564 2 992 3 475
[*,8,2,1]  1 583 2 405 3 351
[*,9,2,1]  1 421 2 570 3 426
[*,10,2,1]  1 433 2 584 3 354
[*,1,3,1]  1 415 2 412 3 564
[*,2,3,1]  1 712 2 433 3 422
[*,3,3,1]  1 376 2 411 3 429
[*,4,3,1]  1 557 2 365 3 387
[*,5,3,1]  1 650 2 605 3 99
[*,6,3,1]  1 330 2 427 3 342
[*,7,3,1]  1 497 2 395 3 445
[*,8,3,1]  1 403 2 519 3 657
[*,9,3,1]  1 416 2 604 3 528
[*,10,3,1]  1 452 2 120 3 684
[*,1,4,1]  1 559 2 618 3 94
[*,2,4,1]  1 159 2 631 3 503
[*,3,4,1]  1 497 2 677 3 575
[*,4,4,1]  1 312 2 473 3 256
[*,5,4,1]  1 665 2 555 3 650
[*,6,4,1]  1 499 2 489 3 571
[*,7,4,1]  1 487 2 400 3 552
[*,8,4,1]  1 693 2 763 3 706
[*,9,4,1]  1 480 2 317 3 463
[*,10,4,1]  1 642 2 474 3 447
[*,1,5,1]  1 408 2 495 3 503
[*,2,5,1]  1 807 2 317 3 360
[*,3,5,1]  1 289 2 648 3 365
[*,4,5,1]  1 606 2 403 3 563
[*,5,5,1]  1 419 2 584 3 663
[*,6,5,1]  1 450 2 533 3 613
[*,7,5,1]  1 511 2 536 3 345
[*,8,5,1]  1 499 2 637 3 747
[*,9,5,1]  1 636 2 687 3 575
[*,10,5,1]  1 600 2 259 3 623
[*,1,6,1]  1 617 2 501 3 487
[*,2,6,1]  1 331 2 542 3 551
[*,3,6,1]  1 515 2 426 3 525
[*,4,6,1]  1 551 2 494 3 517
[*,5,6,1]  1 504 2 506 3 552
[*,6,6,1]  1 846 2 252 3 222
[*,7,6,1]  1 415 2 447 3 755
[*,8,6,1]  1 279 2 563 3 662
[*,9,6,1]  1 750 2 459 3 502
[*,10,6,1]  1 453 2 446 3 448
[*,1,7,1]  1 666 2 542 3 452
[*,2,7,1]  1 473 2 536 3 482
[*,3,7,1]  1 409 2 632 3 750
[*,4,7,1]  1 598 2 216 3 493
[*,5,7,1]  1 324 2 386 3 482
[*,6,7,1]  1 411 2 634 3 614
[*,7,7,1]  1 354 2 614 3 384
[*,8,7,1]  1 455 2 469 3 416
[*,9,7,1]  1 309 2 421 3 623
[*,10,7,1]  1 549 2 538 3 447
[*,1,8,1]  1 705 2 578 3 737
[*,2,8,1]  1 745 2 462 3 505
[*,3,8,1]  1 566 2 551 3 478
[*,4,8,1]  1 739 2 356 3 339
[*,5,8,1]  1 653 2 618 3 628
[*,6,8,1]  1 523 2 490 3 270
[*,7,8,1]  1 375 2 495 3 777
[*,8,8,1]  1 731 2 468 3 668
[*,9,8,1]  1 346 2 563 3 435
[*,10,8,1]  1 527 2 483 3 570
[*,1,9,1]  1 434 2 478 3 398
[*,2,9,1]  1 578 2 448 3 552
[*,3,9,1]  1 208 2 655 3 651
[*,4,9,1]  1 525 2 415 3 543
[*,5,9,1]  1 601 2 628 3 389
[*,6,9,1]  1 547 2 533 3 124
[*,7,9,1]  1 577 2 958 3 309
[*,8,9,1]  1 503 2 485 3 607
[*,9,9,1]  1 537 2 434 3 422
[*,10,9,1]  1 584 2 628 3 503
[*,1,10,1]  1 461 2 342 3 542
[*,2,10,1]  1 638 2 463 3 714
[*,3,10,1]  1 447 2 482 3 259
[*,4,10,1]  1 777 2 395 3 193
[*,5,10,1]  1 759 2 507 3 357
[*,6,10,1]  1 426 2 495 3 645
[*,7,10,1]  1 800 2 411 3 411
[*,8,10,1]  1 552 2 726 3 342
[*,9,10,1]  1 503 2 780 3 552
[*,10,10,1]  1 484 2 596 3 528
[*,1,1,2]  1 75 2 385 3 703
[*,2,1,2]  1 554 2 441 3 591
[*,3,1,2]  1 658 2 572 3 620
[*,4,1,2]  1 553 2 209 3 500
[*,5,1,2]  1 643 2 206 3 388
[*,6,1,2]  1 436 2 543 3 661
[*,7,1,2]  1 264 2 281 3 362
[*,8,1,2]  1 624 2 605 3 361
[*,9,1,2]  1 392 2 523 3 508
[*,10,1,2]  1 358 2 280 3 624
[*,1,2,2]  1 496 2 464 3 713
[*,2,2,2]  1 560 2 449 3 409
[*,3,2,2]  1 510 2 208 3 755
[*,4,2,2]  1 394 2 427 3 628
[*,5,2,2]  1 431 2 415 3 601
[*,6,2,2]  1 349 2 699 3 613
[*,7,2,2]  1 417 2 501 3 460
[*,8,2,2]  1 494 2 490 3 535
[*,9,2,2]  1 245 2 288 3 450
[*,10,2,2]  1 523 2 501 3 530
[*,1,3,2]  1 338 2 652 3 652
[*,2,3,2]  1 518 2 351 3 298
[*,3,3,2]  1 445 2 554 3 725
[*,4,3,2]  1 337 2 447 3 544
[*,5,3,2]  1 406 2 424 3 529
[*,6,3,2]  1 507 2 432 3 774
[*,7,3,2]  1 585 2 486 3 283
[*,8,3,2]  1 383 2 669 3 237
[*,9,3,2]  1 406 2 755 3 277
[*,10,3,2]  1 476 2 417 3 475
[*,1,4,2]  1 530 2 270 3 508
[*,2,4,2]  1 595 2 307 3 399
[*,3,4,2]  1 786 2 212 3 447
[*,4,4,2]  1 415 2 536 3 537
[*,5,4,2]  1 544 2 350 3 632
[*,6,4,2]  1 312 2 410 3 44
[*,7,4,2]  1 308 2 739 3 541
[*,8,4,2]  1 460 2 219 3 831
[*,9,4,2]  1 314 2 495 3 797
[*,10,4,2]  1 368 2 416 3 875
[*,1,5,2]  1 555 2 685 3 464
[*,2,5,2]  1 443 2 469 3 484
[*,3,5,2]  1 626 2 681 3 582
[*,4,5,2]  1 473 2 410 3 547
[*,5,5,2]  1 452 2 516 3 580
[*,6,5,2]  1 663 2 479 3 413
[*,7,5,2]  1 573 2 783 3 179
[*,8,5,2]  1 787 2 158 3 584
[*,9,5,2]  1 410 2 732 3 642
[*,10,5,2]  1 427 2 619 3 792
[*,1,6,2]  1 482 2 674 3 582
[*,2,6,2]  1 694 2 253 3 399
[*,3,6,2]  1 388 2 566 3 605
[*,4,6,2]  1 566 2 223 3 593
[*,5,6,2]  1 410 2 314 3 677
[*,6,6,2]  1 722 2 282 3 594
[*,7,6,2]  1 503 2 373 3 563
[*,8,6,2]  1 547 2 269 3 716
[*,9,6,2]  1 597 2 389 3 568
[*,10,6,2]  1 609 2 283 3 465
[*,1,7,2]  1 559 2 509 3 525
[*,2,7,2]  1 375 2 407 3 625
[*,3,7,2]  1 787 2 574 3 406
[*,4,7,2]  1 540 2 665 3 810
[*,5,7,2]  1 744 2 417 3 516
[*,6,7,2]  1 534 2 447 3 713
[*,7,7,2]  1 339 2 784 3 359
[*,8,7,2]  1 652 2 275 3 607
[*,9,7,2]  1 543 2 591 3 401
[*,10,7,2]  1 652 2 458 3 483
[*,1,8,2]  1 675 2 275 3 505
[*,2,8,2]  1 628 2 624 3 322
[*,3,8,2]  1 451 2 470 3 546
[*,4,8,2]  1 657 2 572 3 505
[*,5,8,2]  1 533 2 512 3 599
[*,6,8,2]  1 760 2 487 3 506
[*,7,8,2]  1 421 2 465 3 635
[*,8,8,2]  1 617 2 518 3 384
[*,9,8,2]  1 507 2 559 3 536
[*,10,8,2]  1 694 2 467 3 382
[*,1,9,2]  1 490 2 427 3 699
[*,2,9,2]  1 539 2 840 3 563
[*,3,9,2]  1 533 2 576 3 598
[*,4,9,2]  1 379 2 396 3 473
[*,5,9,2]  1 623 2 227 3 453
[*,6,9,2]  1 395 2 456 3 698
[*,7,9,2]  1 269 2 427 3 626
[*,8,9,2]  1 342 2 667 3 434
[*,9,9,2]  1 735 2 225 3 537
[*,10,9,2]  1 961 2 616 3 453
[*,1,10,2]  1 441 2 464 3 554
[*,2,10,2]  1 487 2 393 3 599
[*,3,10,2]  1 467 2 599 3 562
[*,4,10,2]  1 573 2 350 3 524
[*,5,10,2]  1 562 2 337 3 427
[*,6,10,2]  1 201 2 555 3 638
[*,7,10,2]  1 456 2 373 3 388
[*,8,10,2]  1 491 2 546 3 621
[*,9,10,2]  1 594 2 573 3 349
[*,10,10,2]  1 322 2 644 3 504
[*,1,1,3]  1 645 2 372 3 628
[*,2,1,3]  1 689 2 426 3 436
[*,3,1,3]  1 589 2 572 3 401
[*,4,1,3]  1 626 2 314 3 757
[*,5,1,3]  1 421 2 809 3 447
[*,6,1,3]  1 364 2 536 3 693
[*,7,1,3]  1 711 2 819 3 485
[*,8,1,3]  1 490 2 628 3 389
[*,9,1,3]  1 762 2 451 3 672
[*,10,1,3]  1 501 2 279 3 687
[*,1,2,3]  1 308 2 662 3 614
[*,2,2,3]  1 355 2 401 3 726
[*,3,2,3]  1 519 2 386 3 548
[*,4,2,3]  1 249 2 506 3 795
[*,5,2,3]  1 694 2 406 3 483
[*,6,2,3]  1 472 2 435 3 649
[*,7,2,3]  1 418 2 787 3 477
[*,8,2,3]  1 807 2 602 3 249
[*,9,2,3]  1 403 2 390 3 658
[*,10,2,3]  1 536 2 613 3 721
[*,1,3,3]  1 269 2 516 3 677
[*,2,3,3]  1 546 2 531 3 504
[*,3,3,3]  1 306 2 417 3 842
[*,4,3,3]  1 557 2 310 3 666
[*,5,3,3]  1 736 2 322 3 341
[*,6,3,3]  1 442 2 552 3 633
[*,7,3,3]  1 476 2 781 3 512
[*,8,3,3]  1 500 2 459 3 339
[*,9,3,3]  1 486 2 588 3 659
[*,10,3,3]  1 778 2 402 3 210
[*,1,4,3]  1 375 2 412 3 664
[*,2,4,3]  1 399 2 511 3 492
[*,3,4,3]  1 421 2 410 3 716
[*,4,4,3]  1 566 2 523 3 789
[*,5,4,3]  1 641 2 441 3 223
[*,6,4,3]  1 686 2 584 3 517
[*,7,4,3]  1 493 2 567 3 471
[*,8,4,3]  1 152 2 610 3 466
[*,9,4,3]  1 511 2 708 3 345
[*,10,4,3]  1 769 2 390 3 416
[*,1,5,3]  1 655 2 289 3 472
[*,2,5,3]  1 597 2 349 3 328
[*,3,5,3]  1 637 2 768 3 428
[*,4,5,3]  1 434 2 602 3 548
[*,5,5,3]  1 458 2 641 3 588
[*,6,5,3]  1 567 2 611 3 638
[*,7,5,3]  1 452 2 343 3 661
[*,8,5,3]  1 599 2 601 3 581
[*,9,5,3]  1 436 2 499 3 460
[*,10,5,3]  1 359 2 335 3 561
[*,1,6,3]  1 748 2 337 3 622
[*,2,6,3]  1 588 2 295 3 446
[*,3,6,3]  1 715 2 359 3 630
[*,4,6,3]  1 453 2 417 3 540
[*,5,6,3]  1 477 2 643 3 617
[*,6,6,3]  1 379 2 211 3 438
[*,7,6,3]  1 455 2 409 3 213
[*,8,6,3]  1 281 2 311 3 730
[*,9,6,3]  1 507 2 480 3 604
[*,10,6,3]  1 391 2 330 3 771
[*,1,7,3]  1 516 2 440 3 438
[*,2,7,3]  1 535 2 434 3 347
[*,3,7,3]  1 445 2 593 3 263
[*,4,7,3]  1 624 2 597 3 508
[*,5,7,3]  1 324 2 614 3 670
[*,6,7,3]  1 365 2 617 3 587
[*,7,7,3]  1 477 2 526 3 551
[*,8,7,3]  1 824 2 556 3 283
[*,9,7,3]  1 511 2 604 3 861
[*,10,7,3]  1 505 2 561 3 395
[*,1,8,3]  1 535 2 559 3 368
[*,2,8,3]  1 506 2 507 3 635
[*,3,8,3]  1 560 2 447 3 499
[*,4,8,3]  1 739 2 388 3 467
[*,5,8,3]  1 426 2 534 3 596
[*,6,8,3]  1 257 2 639 3 410
[*,7,8,3]  1 803 2 390 3 676
[*,8,8,3]  1 598 2 569 3 400
[*,9,8,3]  1 462 2 627 3 750
[*,10,8,3]  1 664 2 358 3 374
[*,1,9,3]  1 300 2 764 3 533
[*,2,9,3]  1 555 2 619 3 467
[*,3,9,3]  1 538 2 329 3 376
[*,4,9,3]  1 752 2 426 3 341
[*,5,9,3]  1 690 2 609 3 460
[*,6,9,3]  1 239 2 539 3 770
[*,7,9,3]  1 736 2 416 3 581
[*,8,9,3]  1 497 2 227 3 539
[*,9,9,3]  1 616 2 353 3 531
[*,10,9,3]  1 336 2 676 3 356
[*,1,10,3]  1 550 2 265 3 726
[*,2,10,3]  1 635 2 551 3 636
[*,3,10,3]  1 506 2 358 3 490
[*,4,10,3]  1 662 2 447 3 423
[*,5,10,3]  1 468 2 587 3 229
[*,6,10,3]  1 401 2 479 3 578
[*,7,10,3]  1 444 2 439 3 539
[*,8,10,3]  1 629 2 548 3 680
[*,9,10,3]  1 633 2 331 3 249
[*,10,10,3]  1 260 2 525 3 434
[*,1,1,4]  1 380 2 550 3 494
[*,2,1,4]  1 630 2 543 3 248
[*,3,1,4]  1 456 2 527 3 621
[*,4,1,4]  1 511 2 596 3 570
[*,5,1,4]  1 290 2 733 3 371
[*,6,1,4]  1 733 2 601 3 344
[*,7,1,4]  1 350 2 385 3 439
[*,8,1,4]  1 293 2 354 3 497
[*,9,1,4]  1 642 2 456 3 487
[*,10,1,4]  1 537 2 334 3 412
[*,1,2,4]  1 294 2 497 3 461
[*,2,2,4]  1 618 2 564 3 271
[*,3,2,4]  1 331 2 616 3 184
[*,4,2,4]  1 710 2 456 3 455
[*,5,2,4]  1 366 2 477 3 742
[*,6,2,4]  1 501 2 348 3 674
[*,7,2,4]  1 538 2 485 3 609
[*,8,2,4]  1 396 2 611 3 430
[*,9,2,4]  1 431 2 364 3 601
[*,10,2,4]  1 251 2 725 3 313
[*,1,3,4]  1 535 2 691 3 544
[*,2,3,4]  1 755 2 642 3 386
[*,3,3,4]  1 559 2 582 3 502
[*,4,3,4]  1 568 2 425 3 411
[*,5,3,4]  1 838 2 497 3 499
[*,6,3,4]  1 550 2 486 3 526
[*,7,3,4]  1 783 2 371 3 499
[*,8,3,4]  1 508 2 429 3 471
[*,9,3,4]  1 612 2 523 3 497
[*,10,3,4]  1 579 2 625 3 120
[*,1,4,4]  1 492 2 667 3 467
[*,2,4,4]  1 217 2 573 3 508
[*,3,4,4]  1 645 2 556 3 454
[*,4,4,4]  1 467 2 765 3 276
[*,5,4,4]  1 592 2 460 3 402
[*,6,4,4]  1 298 2 765 3 356
[*,7,4,4]  1 497 2 337 3 579
[*,8,4,4]  1 510 2 416 3 553
[*,9,4,4]  1 770 2 542 3 296
[*,10,4,4]  1 445 2 436 3 544
[*,1,5,4]  1 449 2 329 3 861
[*,2,5,4]  1 393 2 552 3 512
[*,3,5,4]  1 580 2 641 3 466
[*,4,5,4]  1 533 2 436 3 703
[*,5,5,4]  1 543 2 534 3 482
[*,6,5,4]  1 375 2 560 3 670
[*,7,5,4]  1 580 2 614 3 551
[*,8,5,4]  1 329 2 418 3 402
[*,9,5,4]  1 523 2 622 3 457
[*,10,5,4]  1 494 2 557 3 464
[*,1,6,4]  1 587 2 676 3 602
[*,2,6,4]  1 301 2 735 3 681
[*,3,6,4]  1 242 2 356 3 555
[*,4,6,4]  1 241 2 704 3 556
[*,5,6,4]  1 415 2 399 3 481
[*,6,6,4]  1 684 2 523 3 565
[*,7,6,4]  1 290 2 448 3 571
[*,8,6,4]  1 320 2 522 3 376
[*,9,6,4]  1 764 2 312 3 361
[*,10,6,4]  1 468 2 415 3 467
[*,1,7,4]  1 403 2 651 3 375
[*,2,7,4]  1 533 2 611 3 449
[*,3,7,4]  1 535 2 500 3 584
[*,4,7,4]  1 370 2 451 3 808
[*,5,7,4]  1 333 2 530 3 337
[*,6,7,4]  1 336 2 538 3 506
[*,7,7,4]  1 603 2 657 3 507
[*,8,7,4]  1 691 2 682 3 613
[*,9,7,4]  1 441 2 213 3 364
[*,10,7,4]  1 380 2 684 3 586
[*,1,8,4]  1 412 2 759 3 579
[*,2,8,4]  1 519 2 494 3 587
[*,3,8,4]  1 189 2 861 3 619
[*,4,8,4]  1 584 2 300 3 657
[*,5,8,4]  1 757 2 602 3 323
[*,6,8,4]  1 545 2 318 3 294
[*,7,8,4]  1 537 2 357 3 565
[*,8,8,4]  1 586 2 363 3 456
[*,9,8,4]  1 659 2 326 3 612
[*,10,8,4]  1 637 2 746 3 340
[*,1,9,4]  1 624 2 539 3 691
[*,2,9,4]  1 376 2 320 3 452
[*,3,9,4]  1 499 2 355 3 629
[*,4,9,4]  1 512 2 163 3 376
[*,5,9,4]  1 355 2 279 3 536
[*,6,9,4]  1 602 2 483 3 328
[*,7,9,4]  1 571 2 524 3 359
[*,8,9,4]  1 420 2 449 3 648
[*,9,9,4]  1 439 2 249 3 446
[*,10,9,4]  1 559 2 521 3 652
[*,1,10,4]  1 511 2 472 3 547
[*,2,10,4]  1 55 2 706 3 377
[*,3,10,4]  1 696 2 487 3 371
[*,4,10,4]  1 638 2 78 3 451
[*,5,10,4]  1 436 2 358 3 659
[*,6,10,4]  1 312 2 428 3 714
[*,7,10,4]  1 284 2 516 3 831
[*,8,10,4]  1 776 2 449 3 610
[*,9,10,4]  1 740 2 441 3 450
[*,10,10,4]  1 179 2 699 3 757
[*,1,1,5]  1 413 2 812 3 377
[*,2,1,5]  1 378 2 452 3 763
[*,3,1,5]  1 719 2 541 3 499
[*,4,1,5]  1 449 2 498 3 404
[*,5,1,5]  1 572 2 420 3 526
[*,6,1,5]  1 375 2 723 3 456
[*,7,1,5]  1 558 2 559 3 625
[*,8,1,5]  1 802 2 303 3 488
[*,9,1,5]  1 557 2 456 3 438
[*,10,1,5]  1 333 2 484 3 648
[*,1,2,5]  1 536 2 324 3 383
[*,2,2,5]  1 484 2 777 3 517
[*,3,2,5]  1 518 2 514 3 336
[*,4,2,5]  1 490 2 641 3 488
[*,5,2,5]  1 443 2 761 3 550
[*,6,2,5]  1 357 2 686 3 690
[*,7,2,5]  1 634 2 472 3 439
[*,8,2,5]  1 546 2 538 3 388
[*,9,2,5]  1 485 2 565 3 380
[*,10,2,5]  1 579 2 271 3 534
[*,1,3,5]  1 467 2 695 3 341
[*,2,3,5]  1 579 2 601 3 259
[*,3,3,5]  1 432 2 519 3 437
[*,4,3,5]  1 457 2 487 3 888
[*,5,3,5]  1 520 2 633 3 825
[*,6,3,5]  1 597 2 589 3 491
[*,7,3,5]  1 338 2 560 3 653
[*,8,3,5]  1 575 2 385 3 607
[*,9,3,5]  1 719 2 258 3 358
[*,10,3,5]  1 639 2 639 3 570
[*,1,4,5]  1 446 2 645 3 611
[*,2,4,5]  1 332 2 637 3 439
[*,3,4,5]  1 502 2 584 3 325
[*,4,4,5]  1 456 2 280 3 655
[*,5,4,5]  1 578 2 362 3 496
[*,6,4,5]  1 711 2 183 3 393
[*,7,4,5]  1 570 2 846 3 158
[*,8,4,5]  1 519 2 534 3 496
[*,9,4,5]  1 711 2 281 3 559
[*,10,4,5]  1 511 2 750 3 381
[*,1,5,5]  1 546 2 695 3 603
[*,2,5,5]  1 1000 2 217 3 563
[*,3,5,5]  1 583 2 509 3 707
[*,4,5,5]  1 628 2 565 3 811
[*,5,5,5]  1 310 2 762 3 494
[*,6,5,5]  1 374 2 564 3 525
[*,7,5,5]  1 586 2 814 3 481
[*,8,5,5]  1 604 2 497 3 457
[*,9,5,5]  1 509 2 644 3 422
[*,10,5,5]  1 498 2 555 3 793
[*,1,6,5]  1 393 2 561 3 350
[*,2,6,5]  1 696 2 520 3 468
[*,3,6,5]  1 562 2 457 3 484
[*,4,6,5]  1 453 2 495 3 620
[*,5,6,5]  1 638 2 588 3 496
[*,6,6,5]  1 504 2 431 3 613
[*,7,6,5]  1 425 2 585 3 340
[*,8,6,5]  1 551 2 495 3 509
[*,9,6,5]  1 442 2 406 3 582
[*,10,6,5]  1 616 2 349 3 334
[*,1,7,5]  1 369 2 524 3 775
[*,2,7,5]  1 635 2 246 3 491
[*,3,7,5]  1 540 2 424 3 420
[*,4,7,5]  1 677 2 565 3 560
[*,5,7,5]  1 691 2 438 3 488
[*,6,7,5]  1 575 2 339 3 598
[*,7,7,5]  1 378 2 559 3 504
[*,8,7,5]  1 551 2 345 3 555
[*,9,7,5]  1 545 2 750 3 382
[*,10,7,5]  1 568 2 610 3 418
[*,1,8,5]  1 230 2 566 3 237
[*,2,8,5]  1 425 2 631 3 176
[*,3,8,5]  1 727 2 443 3 641
[*,4,8,5]  1 588 2 254 3 628
[*,5,8,5]  1 384 2 658 3 364
[*,6,8,5]  1 319 2 290 3 559
[*,7,8,5]  1 600 2 227 3 791
[*,8,8,5]  1 574 2 326 3 714
[*,9,8,5]  1 347 2 598 3 475
[*,10,8,5]  1 597 2 634 3 334
[*,1,9,5]  1 714 2 470 3 374
[*,2,9,5]  1 572 2 601 3 381
[*,3,9,5]  1 652 2 496 3 558
[*,4,9,5]  1 577 2 542 3 399
[*,5,9,5]  1 553 2 586 3 605
[*,6,9,5]  1 581 2 519 3 439
[*,7,9,5]  1 533 2 291 3 642
[*,8,9,5]  1 692 2 424 3 471
[*,9,9,5]  1 499 2 509 3 500
[*,10,9,5]  1 140 2 695 3 645
[*,1,10,5]  1 580 2 803 3 381
[*,2,10,5]  1 641 2 495 3 350
[*,3,10,5]  1 522 2 872 3 430
[*,4,10,5]  1 483 2 455 3 589
[*,5,10,5]  1 271 2 435 3 590
[*,6,10,5]  1 262 2 589 3 891
[*,7,10,5]  1 428 2 672 3 526
[*,8,10,5]  1 436 2 306 3 694
[*,9,10,5]  1 442 2 356 3 469
[*,10,10,5]  1 567 2 759 3 957
[*,1,1,6]  1 594 2 546 3 460
[*,2,1,6]  1 405 2 561 3 529
[*,3,1,6]  1 577 2 476 3 498
[*,4,1,6]  1 879 2 351 3 478
[*,5,1,6]  1 592 2 333 3 635
[*,6,1,6]  1 475 2 554 3 529
[*,7,1,6]  1 942 2 525 3 307
[*,8,1,6]  1 572 2 689 3 205
[*,9,1,6]  1 599 2 431 3 453
[*,10,1,6]  1 509 2 819 3 441
[*,1,2,6]  1 605 2 432 3 574
[*,2,2,6]  1 506 2 449 3 752
[*,3,2,6]  1 319 2 405 3 510
[*,4,2,6]  1 188 2 467 3 828
[*,5,2,6]  1 346 2 711 3 650
[*,6,2,6]  1 828 2 613 3 527
[*,7,2,6]  1 446 2 409 3 559
[*,8,2,6]  1 534 2 497 3 639
[*,9,2,6]  1 346 2 465 3 599
[*,10,2,6]  1 153 2 537 3 512
[*,1,3,6]  1 647 2 549 3 413
[*,2,3,6]  1 408 2 561 3 701
[*,3,3,6]  1 625 2 410 3 427
[*,4,3,6]  1 765 2 421 3 437
[*,5,3,6]  1 479 2 514 3 680
[*,6,3,6]  1 380 2 369 3 521
[*,7,3,6]  1 497 2 680 3 305
[*,8,3,6]  1 453 2 627 3 574
[*,9,3,6]  1 567 2 639 3 659
[*,10,3,6]  1 565 2 460 3 558
[*,1,4,6]  1 401 2 677 3 548
[*,2,4,6]  1 644 2 327 3 564
[*,3,4,6]  1 466 2 578 3 408
[*,4,4,6]  1 315 2 433 3 549
[*,5,4,6]  1 408 2 558 3 445
[*,6,4,6]  1 726 2 589 3 267
[*,7,4,6]  1 665 2 731 3 57
[*,8,4,6]  1 221 2 692 3 586
[*,9,4,6]  1 606 2 469 3 516
[*,10,4,6]  1 394 2 709 3 503
[*,1,5,6]  1 620 2 644 3 626
[*,2,5,6]  1 490 2 715 3 497
[*,3,5,6]  1 476 2 460 3 807
[*,4,5,6]  1 328 2 354 3 633
[*,5,5,6]  1 637 2 561 3 214
[*,6,5,6]  1 777 2 656 3 491
[*,7,5,6]  1 493 2 576 3 468
[*,8,5,6]  1 270 2 475 3 652
[*,9,5,6]  1 578 2 564 3 383
[*,10,5,6]  1 478 2 383 3 560
[*,1,6,6]  1 406 2 574 3 184
[*,2,6,6]  1 176 2 544 3 894
[*,3,6,6]  1 375 2 517 3 414
[*,4,6,6]  1 568 2 491 3 652
[*,5,6,6]  1 757 2 197 3 474
[*,6,6,6]  1 494 2 386 3 476
[*,7,6,6]  1 753 2 367 3 463
[*,8,6,6]  1 561 2 302 3 354
[*,9,6,6]  1 306 2 544 3 455
[*,10,6,6]  1 406 2 453 3 547
[*,1,7,6]  1 410 2 586 3 717
[*,2,7,6]  1 644 2 450 3 425
[*,3,7,6]  1 310 2 330 3 786
[*,4,7,6]  1 905 2 188 3 401
[*,5,7,6]  1 357 2 572 3 447
[*,6,7,6]  1 328 2 618 3 377
[*,7,7,6]  1 475 2 638 3 422
[*,8,7,6]  1 367 2 593 3 447
[*,9,7,6]  1 574 2 556 3 407
[*,10,7,6]  1 440 2 299 3 474
[*,1,8,6]  1 647 2 254 3 422
[*,2,8,6]  1 297 2 678 3 535
[*,3,8,6]  1 542 2 504 3 638
[*,4,8,6]  1 540 2 478 3 671
[*,5,8,6]  1 489 2 487 3 447
[*,6,8,6]  1 426 2 527 3 340
[*,7,8,6]  1 612 2 490 3 693
[*,8,8,6]  1 328 2 484 3 571
[*,9,8,6]  1 440 2 519 3 443
[*,10,8,6]  1 700 2 291 3 423
[*,1,9,6]  1 434 2 332 3 586
[*,2,9,6]  1 417 2 622 3 637
[*,3,9,6]  1 357 2 331 3 471
[*,4,9,6]  1 541 2 492 3 921
[*,5,9,6]  1 303 2 671 3 595
[*,6,9,6]  1 343 2 545 3 454
[*,7,9,6]  1 533 2 382 3 709
[*,8,9,6]  1 525 2 278 3 400
[*,9,9,6]  1 632 2 208 3 609
[*,10,9,6]  1 577 2 393 3 469
[*,1,10,6]  1 594 2 266 3 344
[*,2,10,6]  1 758 2 210 3 628
[*,3,10,6]  1 467 2 465 3 355
[*,4,10,6]  1 499 2 700 3 571
[*,5,10,6]  1 654 2 217 3 336
[*,6,10,6]  1 742 2 402 3 361
[*,7,10,6]  1 607 2 488 3 389
[*,8,10,6]  1 466 2 410 3 714
[*,9,10,6]  1 519 2 581 3 544
[*,10,10,6]  1 641 2 556 3 559
[*,1,1,7]  1 577 2 366 3 415
[*,2,1,7]  1 177 2 348 3 605
[*,3,1,7]  1 62 2 515 3 636
[*,4,1,7]  1 514 2 465 3 763
[*,5,1,7]  1 839 2 298 3 666
[*,6,1,7]  1 189 2 474 3 557
[*,7,1,7]  1 278 2 308 3 585
[*,8,1,7]  1 451 2 371 3 383
[*,9,1,7]  1 504 2 350 3 528
[*,10,1,7]  1 296 2 221 3 738
[*,1,2,7]  1 270 2 590 3 527
[*,2,2,7]  1 414 2 451 3 509
[*,3,2,7]  1 413 2 419 3 796
[*,4,2,7]  1 644 2 432 3 590
[*,5,2,7]  1 587 2 651 3 615
[*,6,2,7]  1 434 2 765 3 825
[*,7,2,7]  1 501 2 594 3 552
[*,8,2,7]  1 615 2 577 3 654
[*,9,2,7]  1 268 2 548 3 598
[*,10,2,7]  1 540 2 619 3 585
[*,1,3,7]  1 605 2 106 3 541
[*,2,3,7]  1 524 2 571 3 718
[*,3,3,7]  1 436 2 628 3 635
[*,4,3,7]  1 697 2 275 3 587
[*,5,3,7]  1 553 2 750 3 584
[*,6,3,7]  1 443 2 595 3 430
[*,7,3,7]  1 617 2 401 3 552
[*,8,3,7]  1 634 2 566 3 385
[*,9,3,7]  1 569 2 427 3 446
[*,10,3,7]  1 468 2 676 3 621
[*,1,4,7]  1 552 2 805 3 644
[*,2,4,7]  1 521 2 299 3 583
[*,3,4,7]  1 581 2 595 3 471
[*,4,4,7]  1 424 2 351 3 587
[*,5,4,7]  1 461 2 610 3 459
[*,6,4,7]  1 294 2 445 3 502
[*,7,4,7]  1 514 2 719 3 686
[*,8,4,7]  1 678 2 362 3 484
[*,9,4,7]  1 523 2 389 3 547
[*,10,4,7]  1 354 2 274 3 617
[*,1,5,7]  1 418 2 423 3 489
[*,2,5,7]  1 464 2 622 3 333
[*,3,5,7]  1 812 2 257 3 180
[*,4,5,7]  1 546 2 507 3 527
[*,5,5,7]  1 360 2 545 3 866
[*,6,5,7]  1 444 2 713 3 686
[*,7,5,7]  1 570 2 385 3 644
[*,8,5,7]  1 521 2 424 3 577
[*,9,5,7]  1 406 2 592 3 499
[*,10,5,7]  1 561 2 581 3 610
[*,1,6,7]  1 428 2 587 3 449
[*,2,6,7]  1 512 2 526 3 551
[*,3,6,7]  1 784 2 681 3 553
[*,4,6,7]  1 592 2 527 3 118
[*,5,6,7]  1 830 2 544 3 178
[*,6,6,7]  1 508 2 567 3 314
[*,7,6,7]  1 665 2 626 3 539
[*,8,6,7]  1 258 2 497 3 670
[*,9,6,7]  1 722 2 450 3 502
[*,10,6,7]  1 397 2 518 3 381
[*,1,7,7]  1 550 2 415 3 545
[*,2,7,7]  1 503 2 516 3 783
[*,3,7,7]  1 652 2 369 3 535
[*,4,7,7]  1 373 2 426 3 360
[*,5,7,7]  1 466 2 463 3 677
[*,6,7,7]  1 554 2 564 3 759
[*,7,7,7]  1 430 2 699 3 311
[*,8,7,7]  1 444 2 389 3 615
[*,9,7,7]  1 456 2 514 3 736
[*,10,7,7]  1 476 2 291 3 754
[*,1,8,7]  1 629 2 569 3 454
[*,2,8,7]  1 722 2 444 3 505
[*,3,8,7]  1 503 2 485 3 280
[*,4,8,7]  1 744 2 174 3 362
[*,5,8,7]  1 254 2 501 3 731
[*,6,8,7]  1 621 2 540 3 350
[*,7,8,7]  1 448 2 497 3 518
[*,8,8,7]  1 696 2 296 3 426
[*,9,8,7]  1 521 2 580 3 498
[*,10,8,7]  1 653 2 1 3 373
[*,1,9,7]  1 630 2 651 3 561
[*,2,9,7]  1 483 2 508 3 323
[*,3,9,7]  1 502 2 612 3 463
[*,4,9,7]  1 833 2 654 3 385
[*,5,9,7]  1 594 2 441 3 731
[*,6,9,7]  1 354 2 721 3 561
[*,7,9,7]  1 500 2 376 3 189
[*,8,9,7]  1 839 2 546 3 407
[*,9,9,7]  1 595 2 340 3 596
[*,10,9,7]  1 552 2 715 3 302
[*,1,10,7]  1 498 2 401 3 327
[*,2,10,7]  1 569 2 784 3 279
[*,3,10,7]  1 611 2 431 3 539
[*,4,10,7]  1 525 2 565 3 409
[*,5,10,7]  1 515 2 424 3 351
[*,6,10,7]  1 471 2 432 3 497
[*,7,10,7]  1 424 2 479 3 616
[*,8,10,7]  1 514 2 336 3 648
[*,9,10,7]  1 400 2 715 3 479
[*,10,10,7]  1 446 2 681 3 215
[*,1,1,8]  1 378 2 403 3 464
[*,2,1,8]  1 379 2 408 3 768
[*,3,1,8]  1 199 2 705 3 530
[*,4,1,8]  1 526 2 452 3 506
[*,5,1,8]  1 413 2 447 3 475
[*,6,1,8]  1 500 2 190 3 480
[*,7,1,8]  1 467 2 517 3 591
[*,8,1,8]  1 438 2 543 3 603
[*,9,1,8]  1 524 2 767 3 487
[*,10,1,8]  1 528 2 527 3 388
[*,1,2,8]  1 540 2 366 3 311
[*,2,2,8]  1 493 2 541 3 577
[*,3,2,8]  1 527 2 217 3 638
[*,4,2,8]  1 608 2 532 3 287
[*,5,2,8]  1 439 2 923 3 484
[*,6,2,8]  1 525 2 378 3 538
[*,7,2,8]  1 604 2 451 3 419
[*,8,2,8]  1 642 2 513 3 637
[*,9,2,8]  1 448 2 506 3 707
[*,10,2,8]  1 377 2 884 3 253
[*,1,3,8]  1 364 2 488 3 540
[*,2,3,8]  1 355 2 662 3 687
[*,3,3,8]  1 586 2 439 3 803
[*,4,3,8]  1 445 2 506 3 470
[*,5,3,8]  1 391 2 662 3 388
[*,6,3,8]  1 713 2 377 3 286
[*,7,3,8]  1 361 2 621 3 531
[*,8,3,8]  1 810 2 555 3 409
[*,9,3,8]  1 549 2 701 3 706
[*,10,3,8]  1 648 2 532 3 421
[*,1,4,8]  1 605 2 445 3 622
[*,2,4,8]  1 547 2 465 3 409
[*,3,4,8]  1 396 2 232 3 655
[*,4,4,8]  1 161 2 563 3 415
[*,5,4,8]  1 369 2 395 3 505
[*,6,4,8]  1 495 2 630 3 531
[*,7,4,8]  1 488 2 373 3 671
[*,8,4,8]  1 354 2 768 3 580
[*,9,4,8]  1 480 2 783 3 489
[*,10,4,8]  1 341 2 447 3 449
[*,1,5,8]  1 470 2 503 3 594
[*,2,5,8]  1 374 2 502 3 578
[*,3,5,8]  1 279 2 278 3 770
[*,4,5,8]  1 655 2 461 3 545
[*,5,5,8]  1 374 2 747 3 426
[*,6,5,8]  1 573 2 553 3 544
[*,7,5,8]  1 665 2 414 3 510
[*,8,5,8]  1 371 2 520 3 423
[*,9,5,8]  1 746 2 309 3 547
[*,10,5,8]  1 650 2 260 3 480
[*,1,6,8]  1 431 2 567 3 422
[*,2,6,8]  1 769 2 460 3 152
[*,3,6,8]  1 361 2 774 3 233
[*,4,6,8]  1 447 2 335 3 866
[*,5,6,8]  1 263 2 899 3 545
[*,6,6,8]  1 500 2 440 3 494
[*,7,6,8]  1 460 2 360 3 633
[*,8,6,8]  1 284 2 573 3 670
[*,9,6,8]  1 515 2 893 3 299
[*,10,6,8]  1 820 2 189 3 345
[*,1,7,8]  1 684 2 514 3 467
[*,2,7,8]  1 752 2 456 3 383
[*,3,7,8]  1 454 2 479 3 483
[*,4,7,8]  1 123 2 601 3 604
[*,5,7,8]  1 562 2 318 3 768
[*,6,7,8]  1 732 2 584 3 432
[*,7,7,8]  1 492 2 384 3 503
[*,8,7,8]  1 459 2 674 3 541
[*,9,7,8]  1 649 2 524 3 739
[*,10,7,8]  1 436 2 164 3 724
[*,1,8,8]  1 402 2 364 3 591
[*,2,8,8]  1 647 2 674 3 430
[*,3,8,8]  1 737 2 568 3 306
[*,4,8,8]  1 303 2 742 3 278
[*,5,8,8]  1 510 2 359 3 363
[*,6,8,8]  1 559 2 741 3 448
[*,7,8,8]  1 427 2 794 3 755
[*,8,8,8]  1 632 2 491 3 387
[*,9,8,8]  1 725 2 485 3 324
[*,10,8,8]  1 322 2 560 3 549
[*,1,9,8]  1 640 2 457 3 736
[*,2,9,8]  1 372 2 343 3 627
[*,3,9,8]  1 448 2 395 3 397
[*,4,9,8]  1 654 2 300 3 535
[*,5,9,8]  1 521 2 701 3 567
[*,6,9,8]  1 626 2 555 3 285
[*,7,9,8]  1 588 2 433 3 289
[*,8,9,8]  1 423 2 532 3 353
[*,9,9,8]  1 505 2 409 3 538
[*,10,9,8]  1 408 2 633 3 241
[*,1,10,8]  1 539 2 650 3 365
[*,2,10,8]  1 228 2 159 3 463
[*,3,10,8]  1 612 2 530 3 306
[*,4,10,8]  1 659 2 645 3 427
[*,5,10,8]  1 557 2 501 3 295
[*,6,10,8]  1 329 2 689 3 493
[*,7,10,8]  1 547 2 450 3 490
[*,8,10,8]  1 333 2 513 3 418
[*,9,10,8]  1 245 2 450 3 682
[*,10,10,8]  1 342 2 610 3 690
[*,1,1,9]  1 286 2 611 3 625
[*,2,1,9]  1 376 2 681 3 508
[*,3,1,9]  1 682 2 390 3 540
[*,4,1,9]  1 585 2 530 3 505
[*,5,1,9]  1 285 2 573 3 481
[*,6,1,9]  1 463 2 624 3 615
[*,7,1,9]  1 411 2 495 3 483
[*,8,1,9]  1 448 2 612 3 513
[*,9,1,9]  1 493 2 705 3 467
[*,10,1,9]  1 554 2 538 3 478
[*,1,2,9]  1 545 2 473 3 531
[*,2,2,9]  1 583 2 626 3 600
[*,3,2,9]  1 422 2 471 3 563
[*,4,2,9]  1 332 2 607 3 493
[*,5,2,9]  1 618 2 658 3 551
[*,6,2,9]  1 662 2 378 3 918
[*,7,2,9]  1 716 2 131 3 452
[*,8,2,9]  1 529 2 526 3 438
[*,9,2,9]  1 525 2 194 3 615
[*,10,2,9]  1 469 2 416 3 410
[*,1,3,9]  1 348 2 400 3 348
[*,2,3,9]  1 383 2 665 3 726
[*,3,3,9]  1 553 2 625 3 472
[*,4,3,9]  1 243 2 597 3 573
[*,5,3,9]  1 648 2 115 3 496
[*,6,3,9]  1 525 2 378 3 523
[*,7,3,9]  1 273 2 585 3 685
[*,8,3,9]  1 546 2 626 3 619
[*,9,3,9]  1 580 2 487 3 327
[*,10,3,9]  1 406 2 616 3 348
[*,1,4,9]  1 553 2 592 3 425
[*,2,4,9]  1 614 2 376 3 617
[*,3,4,9]  1 661 2 422 3 416
[*,4,4,9]  1 495 2 468 3 281
[*,5,4,9]  1 539 2 327 3 263
[*,6,4,9]  1 701 2 584 3 332
[*,7,4,9]  1 619 2 383 3 241
[*,8,4,9]  1 557 2 512 3 509
[*,9,4,9]  1 402 2 223 3 785
[*,10,4,9]  1 666 2 530 3 443
[*,1,5,9]  1 409 2 613 3 517
[*,2,5,9]  1 833 2 545 3 272
[*,3,5,9]  1 532 2 831 3 123
[*,4,5,9]  1 628 2 709 3 588
[*,5,5,9]  1 519 2 535 3 456
[*,6,5,9]  1 644 2 521 3 571
[*,7,5,9]  1 674 2 621 3 451
[*,8,5,9]  1 480 2 555 3 594
[*,9,5,9]  1 420 2 548 3 621
[*,10,5,9]  1 546 2 575 3 649
[*,1,6,9]  1 506 2 704 3 440
[*,2,6,9]  1 799 2 534 3 45
[*,3,6,9]  1 637 2 500 3 254
[*,4,6,9]  1 705 2 273 3 552
[*,5,6,9]  1 708 2 482 3 355
[*,6,6,9]  1 536 2 543 3 315
[*,7,6,9]  1 422 2 415 3 626
[*,8,6,9]  1 477 2 426 3 531
[*,9,6,9]  1 539 2 358 3 405
[*,10,6,9]  1 420 2 496 3 538
[*,1,7,9]  1 413 2 240 3 342
[*,2,7,9]  1 429 2 470 3 536
[*,3,7,9]  1 712 2 209 3 683
[*,4,7,9]  1 437 2 276 3 598
[*,5,7,9]  1 300 2 226 3 913
[*,6,7,9]  1 666 2 376 3 586
[*,7,7,9]  1 609 2 411 3 581
[*,8,7,9]  1 616 2 462 3 606
[*,9,7,9]  1 869 2 336 3 346
[*,10,7,9]  1 478 2 539 3 675
[*,1,8,9]  1 733 2 579 3 558
[*,2,8,9]  1 549 2 502 3 581
[*,3,8,9]  1 381 2 480 3 550
[*,4,8,9]  1 600 2 665 3 300
[*,5,8,9]  1 625 2 431 3 411
[*,6,8,9]  1 564 2 546 3 283
[*,7,8,9]  1 210 2 609 3 819
[*,8,8,9]  1 503 2 432 3 528
[*,9,8,9]  1 551 2 524 3 427
[*,10,8,9]  1 478 2 469 3 713
[*,1,9,9]  1 396 2 377 3 891
[*,2,9,9]  1 813 2 327 3 523
[*,3,9,9]  1 455 2 449 3 536
[*,4,9,9]  1 774 2 368 3 441
[*,5,9,9]  1 578 2 335 3 474
[*,6,9,9]  1 467 2 784 3 647
[*,7,9,9]  1 396 2 563 3 651
[*,8,9,9]  1 640 2 237 3 770
[*,9,9,9]  1 754 2 491 3 435
[*,10,9,9]  1 384 2 431 3 467
[*,1,10,9]  1 459 2 277 3 768
[*,2,10,9]  1 609 2 386 3 646
[*,3,10,9]  1 511 2 147 3 642
[*,4,10,9]  1 742 2 464 3 452
[*,5,10,9]  1 615 2 591 3 546
[*,6,10,9]  1 352 2 627 3 505
[*,7,10,9]  1 708 2 466 3 567
[*,8,10,9]  1 670 2 119 3 644
[*,9,10,9]  1 441 2 510 3 541
[*,10,10,9]  1 335 2 501 3 623
[*,1,1,10]  1 583 2 396 3 556
[*,2,1,10]  1 611 2 752 3 446
[*,3,1,10]  1 495 2 429 3 543
[*,4,1,10]  1 425 2 440 3 449
[*,5,1,10]  1 562 2 614 3 576
[*,6,1,10]  1 494 2 635 3 405
[*,7,1,10]  1 370 2 444 3 479
[*,8,1,10]  1 271 2 440 3 471
[*,9,1,10]  1 515 2 349 3 733
[*,10,1,10]  1 451 2 471 3 562
[*,1,2,10]  1 370 2 603 3 821
[*,2,2,10]  1 473 2 175 3 829
[*,3,2,10]  1 516 2 462 3 832
[*,4,2,10]  1 563 2 558 3 473
[*,5,2,10]  1 567 2 645 3 759
[*,6,2,10]  1 539 2 693 3 441
[*,7,2,10]  1 389 2 434 3 486
[*,8,2,10]  1 613 2 409 3 483
[*,9,2,10]  1 643 2 552 3 388
[*,10,2,10]  1 485 2 517 3 485
[*,1,3,10]  1 278 2 450 3 456
[*,2,3,10]  1 261 2 268 3 555
[*,3,3,10]  1 661 2 619 3 328
[*,4,3,10]  1 459 2 797 3 420
[*,5,3,10]  1 667 2 379 3 495
[*,6,3,10]  1 627 2 496 3 598
[*,7,3,10]  1 794 2 532 3 463
[*,8,3,10]  1 359 2 291 3 680
[*,9,3,10]  1 384 2 520 3 533
[*,10,3,10]  1 498 2 596 3 664
[*,1,4,10]  1 558 2 409 3 532
[*,2,4,10]  1 475 2 572 3 453
[*,3,4,10]  1 648 2 540 3 302
[*,4,4,10]  1 428 2 686 3 680
[*,5,4,10]  1 290 2 719 3 367
[*,6,4,10]  1 410 2 766 3 588
[*,7,4,10]  1 468 2 613 3 398
[*,8,4,10]  1 532 2 525 3 507
[*,9,4,10]  1 535 2 352 3 602
[*,10,4,10]  1 393 2 665 3 637
[*,1,5,10]  1 376 2 672 3 627
[*,2,5,10]  1 584 2 490 3 427
[*,3,5,10]  1 359 2 655 3 498
[*,4,5,10]  1 691 2 456 3 354
[*,5,5,10]  1 475 2 425 3 810
[*,6,5,10]  1 562 2 323 3 488
[*,7,5,10]  1 522 2 226 3 674
[*,8,5,10]  1 574 2 647 3 549
[*,9,5,10]  1 554 2 528 3 681
[*,10,5,10]  1 370 2 640 3 409
[*,1,6,10]  1 701 2 629 3 502
[*,2,6,10]  1 595 2 386 3 310
[*,3,6,10]  1 600 2 247 3 615
[*,4,6,10]  1 566 2 417 3 428
[*,5,6,10]  1 450 2 449 3 574
[*,6,6,10]  1 418 2 533 3 416
[*,7,6,10]  1 517 2 494 3 561
[*,8,6,10]  1 283 2 849 3 400
[*,9,6,10]  1 498 2 606 3 546
[*,10,6,10]  1 754 2 611 3 187
[*,1,7,10]  1 509 2 535 3 528
[*,2,7,10]  1 590 2 571 3 600
[*,3,7,10]  1 501 2 690 3 355
[*,4,7,10]  1 472 2 895 3 420
[*,5,7,10]  1 780 2 404 3 644
[*,6,7,10]  1 703 2 529 3 337
[*,7,7,10]  1 505 2 477 3 666
[*,8,7,10]  1 468 2 560 3 411
[*,9,7,10]  1 573 2 613 3 553
[*,10,7,10]  1 317 2 326 3 619
[*,1,8,10]  1 330 2 596 3 369
[*,2,8,10]  1 781 2 275 3 627
[*,3,8,10]  1 593 2 299 3 714
[*,4,8,10]  1 572 2 455 3 510
[*,5,8,10]  1 573 2 701 3 611
[*,6,8,10]  1 404 2 544 3 642
[*,7,8,10]  1 545 2 313 3 530
[*,8,8,10]  1 425 2 390 3 656
[*,9,8,10]  1 242 2 729 3 371
[*,10,8,10]  1 563 2 684 3 614
[*,1,9,10]  1 315 2 528 3 545
[*,2,9,10]  1 464 2 602 3 282
[*,3,9,10]  1 502 2 552 3 394
[*,4,9,10]  1 233 2 726 3 808
[*,5,9,10]  1 462 2 656 3 718
[*,6,9,10]  1 531 2 457 3 537
[*,7,9,10]  1 464 2 702 3 592
[*,8,9,10]  1 436 2 638 3 554
[*,9,9,10]  1 530 2 256 3 702
[*,10,9,10]  1 643 2 482 3 324
[*,1,10,10]  1 530 2 558 3 564
[*,2,10,10]  1 539 2 666 3 157
[*,3,10,10]  1 334 2 672 3 308
[*,4,10,10]  1 447 2 538 3 622
[*,5,10,10]  1 464 2 603 3 463
[*,6,10,10]  1 461 2 370 3 790
[*,7,10,10]  1 155 2 714 3 489
[*,8,10,10]  1 354 2 471 3 317
[*,9,10,10]  1 547 2 251 3 795
[*,10,10,10]  1 535 2 548 3 426;

#param U :=  1 951.0 2 991.0 3 913.0;
#param pu :=  1 1000.0 2 992.0 3 957.0;
#param pl :=  1 49.0 2 1.0 3 44.0;
